NAME : tsp_234_sol.txt
COMMENT : OR-Tools Guided Local Search
TYPE : TOUR
DIMENSION : 50
COST : 5867
STATUS : ROUTING_SUCCESS
GAP : 0.00% (Reference Solution)
TOUR_SECTION
1
40
24
34
28
37
27
6
11
10
26
30
23
42
45
5
43
2
21
41
4
33
31
18
39
17
9
19
35
7
14
46
29
32
13
16
38
47
36
22
48
49
44
25
12
20
8
50
15
3
-1
